c A SAT instance generated from a 3-CNF formula that had 48 clauses and 12 variables
p cnf 12 48
-10 6 2 0
-4 8 -3 0
-8 -6 5 0
3 5 -12 0
-4 2 6 0
9 1 5 0
-11 1 5 0
6 10 -1 0
-8 -6 2 0
-12 7 -10 0
2 7 -8 0
-5 -1 -12 0
12 6 10 0
7 -11 -1 0
3 -5 -1 0
-9 5 8 0
12 1 9 0
-2 3 12 0
-5 3 12 0
8 -3 -5 0
12 1 4 0
-9 -8 1 0
3 10 1 0
7 -2 12 0
7 2 -6 0
12 4 -10 0
-9 6 12 0
11 8 5 0
-8 4 5 0
6 -2 7 0
-3 -9 -11 0
-12 10 5 0
-5 -8 11 0
1 -6 4 0
-6 10 1 0
-9 8 -10 0
-9 -3 8 0
-7 -6 -9 0
2 -3 -9 0
4 -8 -6 0
-9 6 2 0
-11 -8 -12 0
6 4 -5 0
-12 -7 2 0
-6 -1 -7 0
6 -11 -12 0
-8 -2 -11 0
10 6 -3 0
